ingredients = {null, flour, sugar, coconutFat, oatMilk, eggs, chocolate, strawberries, banana, lemon};
nothing = null;

meals = {lemonPancake, chocolateCake, strawberryCrumble, bananaMousse};

maxIngredients = 5;

mealIngredients = 
     [|flour, oatMilk, eggs, lemon, null|
     flour, sugar, coconutFat, eggs, chocolate|
     sugar, flour, strawberries, null, null|
     sugar, eggs, banana, null, null|];
     
people = {Clydas, Erifio, Gerhei, Keelia, Mernao, Sattam, Uravie};

maxRefusals = 2;

doesNotEat =
     [|null, null|
      null, null|
      flour, null|
      sugar, null|
      eggs, null|
      coconutFat, null|
      flour, strawberries|];

